Gurobi 12.0.3:   lim:time = 14400

  mip:bestbound = 1

Set parameter LogToConsole to value 1

  tech:outlev = 1

Set parameter Cuts to value 3

  cut:cuts = 3

Set parameter Presolve to value 2

  pre:solve = 2

Set parameter MIPFocus to value 2

  mip:focus = 2

Set parameter Symmetry to value 2

  mip:symmetry = 2

Set parameter InfUnbdInfo to value 1

Gurobi Optimizer version 12.0.3 build v12.0.3rc0 (win64 - Windows 11.0 (26100.2))



CPU model: 12th Gen Intel(R) Core(TM) i7-12700, instruction set [SSE2|AVX|AVX2]

Thread count: 12 physical cores, 20 logical processors, using up to 20 threads



Non-default parameters:

TimeLimit  14400

MIPFocus  2

Symmetry  2

Cuts  3

InfUnbdInfo  1

Presolve  2



Optimize a model with 355 rows, 521 columns and 3001 nonzeros

Model fingerprint: 0xae2e023e

Model has 3 quadratic constraints

Variable types: 32 continuous, 489 integer (0 binary)

Coefficient statistics:

  Matrix range     [1e+00, 1e+05]

  QMatrix range    [1e+00, 1e+00]

  QLMatrix range   [8e+00, 2e+01]

  Objective range  [4e+00, 9e+01]

  Bounds range     [1e+00, 1e+02]

  RHS range        [1e+00, 1e+05]

  QRHS range       [1e+02, 1e+02]

Presolve removed 42 rows and 80 columns

Presolve time: 0.06s

Presolved: 619 rows, 714 columns, 4216 nonzeros

Variable types: 14 continuous, 700 integer (597 binary)

Found heuristic solution: objective 447.8200000

Root relaxation presolve removed 43 rows and 0 columns

Root relaxation presolved: 370 rows, 567 columns, 4355 nonzeros





Root relaxation: objective 1.432458e+02, 45 iterations, 0.00 seconds (0.01 work units)



    Nodes    |    Current Node    |     Objective Bounds      |     Work

 Expl Unexpl |  Obj  Depth IntInf | Incumbent    BestBd   Gap | It/Node Time



     0     0  143.24583    0   38  447.82000  143.24583  68.0%     -    0s

H    0     0                     236.6400000  143.24583  39.5%     -    0s

H    0     0                     207.5900000  148.78879  28.3%     -    0s

     0     0  173.58000    0   14  207.59000  173.58000  16.4%     -    0s

     0     0  173.58000    0   14  207.59000  173.58000  16.4%     -    0s

     0     0  173.58000    0   14  207.59000  173.58000  16.4%     -    0s

     0     0  173.58000    0   37  207.59000  173.58000  16.4%     -    0s

     0     0  173.58000    0   18  207.59000  173.58000  16.4%     -    0s

H    0     0                     206.6300000  173.58133  16.0%     -    0s

     0     0  173.58782    0   21  206.63000  173.58782  16.0%     -    0s

     0     0  173.59209    0   21  206.63000  173.59209  16.0%     -    0s

     0     0  192.05815    0   19  206.63000  192.05815  7.05%     -    0s

     0     0  192.06833    0   23  206.63000  192.06833  7.05%     -    0s



Cutting planes:

  Learned: 5

  Gomory: 13

  Cover: 1

  Implied bound: 2

  Flow cover: 12

  Zero half: 1

  Relax-and-lift: 2



Explored 1 nodes (459 simplex iterations) in 0.32 seconds (0.32 work units)

Thread count was 20 (of 20 available processors)



Solution count 4: 206.63 207.59 236.64 447.82 



Optimal solution found (tolerance 1.00e-04)

Best objective 2.066300000000e+02, best bound 2.066300000000e+02, gap 0.0000%



AMPL MP initial flat model has 521 variables (0 integer, 489 binary);

Objectives: 1 linear; 

Constraints:  355 linear; 3 quadratic;



AMPL MP final model has 521 variables (0 integer, 489 binary);

Objectives: 1 linear; 

Constraints:  355 linear; 3 quadratic;





-----RESULTS INFO-----
running_time:  0.344
TC.best_bound:  206.63
TC:  206.63
MIP Gap (%):  0
=== Vehicle Routes ===
Vehicle 1: 0 → 1
Vehicle 1: 1 → 6
Vehicle 1: 2 → 15
Vehicle 1: 3 → 8
Vehicle 1: 6 → 2
Vehicle 1: 8 → 17
Vehicle 1: 15 → 3
Vehicle 2: 0 → 17
Vehicle 3: 0 → 17

=== Full Vehicle Routes ===
Vehicle 1: 0 → 1 → 6 → 2 → 15 → 3 → 8 → 0 (93<100)
Vehicle 2: 0 → 0 (0<100)
Vehicle 3: 0 → 0 (0<100)
Arc used by MRT line: y variables:
MRT used: 8 → 9
Customer assigment to PL: u variables:
4 9
5 15
7 15
Node is served by regular vehicle: g variables:
1
2
3
6
15
8
Customer assigment to Home delivery: gm variables:
1
2
3
6
Node total demands: ntd variables:
1 19 1
2 12 1
3 8 1
6 16 1
7 0 0
14 0 0
15 23 1
16 0 0
8 15 1
9 0 0
10 0 0
11 0 0
12 0 0
13 0 0
Customer's demand delivered to PL: l variables:
4
5
7
Lockers load <= capacity:
0 <= 97
23 <= 81
0 <= 83
0 <= 82
15 <= 90
0 <= 72
0 <= 89
0 <= 89
0 <= 92
